n = 50;
d = [72, 87, 95, 66, 60, 5, 35, 48, 39, 54, 46, 20, 21, 97, 55, 59, 19, 46, 34, 37, 23, 73, 25, 24, 28, 28, 45, 5, 78, 83, 53, 71, 37, 29, 12, 12, 87, 33, 55, 38, 49, 83, 40, 48, 7, 65, 17, 90, 27, 23];
m = 40;
pre = [1, 2, 3, 4, 6, 7, 8, 9, 11, 12, 13, 14, 16, 17, 18, 19, 21, 22, 23, 24, 26, 27, 28, 29, 31, 32, 33, 34, 36, 37, 38, 39, 41, 42, 43, 44, 46, 47, 48, 49];
post = [2, 3, 4, 5, 7, 8, 9, 10, 12, 13, 14, 15, 17, 18, 19, 20, 22, 23, 24, 25, 27, 28, 29, 30, 32, 33, 34, 35, 37, 38, 39, 40, 42, 43, 44, 45, 47, 48, 49, 50];
o = 5;
disj = [{2,8,14,16,25,27,31,40,44,48}, {1,10,11,19,24,29,33,39,43,50}, {4,9,13,20,22,30,35,37,41,46}, {5,7,12,17,23,26,32,38,42,47}, {3,6,15,18,21,28,34,36,45,49}];